% Auto-generated by scripts/generate_dzn.py
% problem_type   = regex
% instance       = regex_55
% source_json    = instances_json/2_high_blowup/regex_55.json
% blowup         = 16.236842105263158
% representation = NFA

mode = 1;

var_count = 41;
n_constraints = 2;
Q = 21;
S = 2;
q0 = [1, 1];
F = [{17}, {21}];
weights = [3, 5, 4, 3, 2, 10, 2, 7, 7, 3, 8, 8, 7, 8, 6, 2, 5, 2, 2, 3, 2, 10, 3, 10, 2, 3, 6, 3, 8, 1, 1, 9, 6, 10, 8, 1, 4, 10, 3, 4, 3];
d_dfa = array3d(1..2, 1..21, 1..2, [
  % k = 1
    0, 0,
    0, 0,
    0, 0,
    0, 0,
    0, 0,
    0, 0,
    0, 0,
    0, 0,
    0, 0,
    0, 0,
    0, 0,
    0, 0,
    0, 0,
    0, 0,
    0, 0,
    0, 0,
    0, 0,
    0, 0,
    0, 0,
    0, 0,
    0, 0,

  % k = 2
    0, 0,
    0, 0,
    0, 0,
    0, 0,
    0, 0,
    0, 0,
    0, 0,
    0, 0,
    0, 0,
    0, 0,
    0, 0,
    0, 0,
    0, 0,
    0, 0,
    0, 0,
    0, 0,
    0, 0,
    0, 0,
    0, 0,
    0, 0,
    0, 0
]);
d_nfa = array3d(1..2, 1..21, 1..2, [
  % k = 1
    {1, 2}, {1},
    {3}, {},
    {}, {4},
    {5}, {5},
    {6}, {6},
    {7}, {7},
    {8}, {8},
    {9}, {9},
    {10}, {10},
    {11}, {11},
    {12}, {12},
    {13}, {13},
    {14}, {14},
    {15}, {15},
    {16}, {16},
    {17}, {17},
    {}, {},
    {}, {},
    {}, {},
    {}, {},
    {}, {},

  % k = 2
    {1}, {2},
    {2}, {3},
    {3}, {4},
    {4}, {5},
    {5}, {6},
    {6}, {7},
    {7}, {8},
    {8}, {9},
    {9}, {10},
    {10}, {11},
    {11}, {12},
    {12}, {13},
    {13}, {14},
    {14}, {15},
    {15}, {16},
    {16}, {17},
    {17}, {18},
    {18}, {19},
    {19}, {20},
    {20}, {21},
    {21}, {}
]);
